NAME: tsp40_20
COMMENT: 40-tsp problem (Padberg/Rinaldi)
TYPE: TSP
DIMENSION: 40
EDGE_WEIGHT_TYPE : EUC_2D
NODE_COORD_SECTION
1 32 13
2 8 34
3 37 32
4 19 32
5 16 5
6 15 32
7 13 22
8 4 25
9 34 31
10 22 16
11 37 35
12 29 24
13 22 5
14 28 16
15 24 24
16 9 30
17 8 15
18 38 36
19 8 38
20 7 9
21 6 22
22 11 19
23 0 30
24 26 28
25 31 27
26 9 13
27 27 5
28 27 14
29 31 17
30 25 16
31 35 10
32 30 0
33 32 7
34 32 32
35 21 27
36 8 7
37 38 15
38 15 26
39 27 8
40 31 10
